c FILE: aim-100-1_6-no-1.cnf
c
c SOURCE: Kazuo Iwama, Eiji Miyano (miyano@cscu.kyushu-u.ac.jp),
c          and Yuichi Asahiro
c
c DESCRIPTION: Artifical instances from generator by source.  Generators
c              and more information in sat/contributed/iwama.
c
c NOTE: Not Satisfiable
c
p cnf 100 160
16 30 95 0
-16 30 95 0
-30 35 78 0
-30 -78 85 0
-78 -85 95 0
8 55 100 0
8 55 -95 0
9 52 100 0
9 73 -100 0
-8 -9 52 0
38 66 83 0
-38 83 87 0
-52 83 -87 0
66 74 -83 0
-52 -66 89 0
-52 73 -89 0
-52 73 -74 0
-8 -73 -95 0
40 -55 90 0
-40 -55 90 0
25 35 82 0
-25 82 -90 0
-55 -82 -90 0
11 75 84 0
11 -75 96 0
23 -75 -96 0
-11 23 -35 0
-23 29 65 0
29 -35 -65 0
-23 -29 84 0
-35 54 70 0
-54 70 77 0
19 -77 -84 0
-19 -54 70 0
22 68 81 0
-22 48 81 0
-22 -48 93 0
3 -48 -93 0
7 18 -81 0
-7 56 -81 0
3 18 -56 0
-18 47 68 0
-18 -47 -81 0
-3 68 77 0
-3 -77 -84 0
19 -68 -70 0
-19 -68 74 0
-68 -70 -74 0
54 61 -62 0
50 53 -62 0
-50 61 -62 0
-27 56 93 0
4 14 76 0
4 -76 96 0
-4 14 80 0
-14 -68 80 0
-10 -39 -89 0
1 49 -81 0
1 26 -49 0
17 -26 -49 0
-1 17 -40 0
16 51 -89 0
-9 57 60 0
12 45 -51 0
2 12 69 0
2 -12 40 0
-12 -51 69 0
-33 60 -98 0
5 -32 -66 0
2 -47 -100 0
-42 64 83 0
20 -42 -64 0